Route #1: 14 23 7 55 50
Route #2: 12 22 4 26 43 32 42 33
Route #3: 39 28 60 31 52 57 17 13
Route #4: 9 34 48 16 1 11 44
Route #5: 51 35 18 47 56 27 21 36 29 25
Route #6: 19 53 41 6 20 58
Route #7: 10 2 46 54 5 8 40
Route #8: 30 37 45 59 49 24
Route #9: 3 38 15
Cost 1034
Time 0.14711
